10
10
513315
0
0
12 12 7 7 9 14 11 3 8 14
1
0
78 87 95 93 107 107 91 92 56 100
2
0
27 58 53 57 82 62 67 64 78 62
3
0
22 13 29 22 23 14 18 30 17 18
4
0
1 1 1 1 1 1 1 1 1 1
5
0
51 54 51 73 59 92 68 48 45 56
6
0
6 17 10 13 11 9 9 7 5 13
7
0
14 20 32 15 26 12 11 19 20 27
8
0
17 40 30 33 25 23 22 45 27 37
9
0
26 29 25 44 47 32 34 38 34 28
